data;


param d:= 100;
param r:=5;
param p:=0.740000;
param M:=1000;
param U:=
         1         1        8.597133e-02
         2         1       -1.187685e+00
         3         1       -1.416211e+00
         4         1       -2.880184e-01
         5         1        6.438975e-01
         6         1        6.280271e-01
         7         1        1.442416e+00
         8         1        1.474276e-01
         9         1        3.113663e-03
        10         1        6.778339e-01
        11         1        1.415656e+00
        12         1       -3.723755e-01
        13         1        6.648211e-01
        14         1        1.819613e+00
        15         1       -2.368543e-01
        16         1        2.097035e+00
        17         1       -1.829791e-01
        18         1       -4.059539e-01
        19         1        2.709087e-01
        20         1        1.015820e+00
        21         1       -9.458879e-02
        22         1        1.665230e-01
        23         1        5.947082e-01
        24         1       -4.534037e-01
        25         1        3.613784e-01
        26         1       -1.010040e+00
        27         1       -2.301457e-01
        28         1        1.218861e+00
        29         1        1.146837e+00
        30         1        1.410946e+00
        31         1       -3.699926e-01
        32         1       -1.293741e-01
        33         1        8.295197e-01
        34         1        6.215364e-01
        35         1       -8.128317e-01
        36         1       -1.279477e-03
        37         1        1.352349e+00
        38         1        7.959929e-01
        39         1        2.402332e-01
        40         1       -1.173706e+00
        41         1       -1.755445e-02
        42         1        1.230552e+00
        43         1       -1.160086e+00
        44         1        1.617580e-01
        45         1        1.022775e+00
        46         1       -1.316333e+00
        47         1       -1.644032e-04
        48         1        1.400272e-01
        49         1        1.997356e+00
        50         1       -1.441210e+00
        51         1        9.622196e-01
        52         1        1.331263e-01
        53         1       -1.094696e+00
        54         1        1.588836e+00
        55         1        7.620380e-02
        56         1        3.728937e-01
        57         1        5.626561e-01
        58         1        1.308525e-01
        59         1        1.894312e-01
        60         1       -2.003744e-01
        61         1       -9.523173e-01
        62         1        2.653504e-01
        63         1       -4.046616e-02
        64         1       -1.390724e+00
        65         1        1.589998e-01
        66         1       -1.702123e+00
        67         1       -1.504008e+00
        68         1        8.988610e-02
        69         1        3.440292e-01
        70         1       -9.531605e-02
        71         1       -1.906525e+00
        72         1        1.619002e-01
        73         1        3.402469e-01
        74         1       -6.257544e-01
        75         1        8.217893e-01
        76         1        4.600902e-01
        77         1       -5.965611e-01
        78         1       -3.126940e-01
        79         1       -3.241631e-01
        80         1       -8.280478e-03
        81         1        5.105027e-01
        82         1       -6.306978e-01
        83         1       -1.110968e+00
        84         1        4.958124e-01
        85         1       -2.970017e-02
        86         1        6.090120e-01
        87         1        1.908969e+00
        88         1       -5.952702e-01
        89         1       -1.396681e+00
        90         1       -1.381258e+00
        91         1        5.250960e-02
        92         1       -1.257448e+00
        93         1        4.196788e-03
        94         1       -1.748705e+00
        95         1        2.594565e-01
        96         1        3.424661e-01
        97         1       -4.893580e-01
        98         1        2.953710e-01
        99         1       -1.406907e+00
       100         1        8.796858e-01
         1         2       -5.363063e-01
         2         2       -5.854152e-02
         3         2        1.746065e+00
         4         2       -1.921334e-01
         5         2        3.299900e-01
         6         2        2.368614e-01
         7         2       -1.520779e+00
         8         2        1.487880e+00
         9         2       -9.838559e-01
        10         2        3.031397e-01
        11         2        8.282145e-01
        12         2       -4.579336e-01
        13         2        1.316769e+00
        14         2        5.027191e-01
        15         2        6.922276e-01
        16         2        1.169140e+00
        17         2       -5.156586e-01
        18         2        6.226673e-01
        19         2       -9.153126e-01
        20         2       -1.332034e+00
        21         2        4.183113e-01
        22         2       -1.334919e+00
        23         2        7.887136e-01
        24         2        1.054081e+00
        25         2        3.322201e-01
        26         2        3.038775e-01
        27         2        8.360870e-01
        28         2       -3.511092e-01
        29         2        1.452882e+00
        30         2       -8.135665e-01
        31         2       -1.867273e+00
        32         2        3.194840e-01
        33         2       -8.449149e-01
        34         2        6.828269e-02
        35         2        2.482541e-01
        36         2        1.314411e+00
        37         2        1.165907e+00
        38         2       -1.325180e-01
        39         2        8.121496e-01
        40         2        1.322202e+00
        41         2       -5.421077e-01
        42         2        3.464641e-01
        43         2       -6.140673e-02
        44         2       -1.299092e+00
        45         2        2.415672e+00
        46         2       -1.307483e+00
        47         2        1.079538e+00
        48         2       -4.161644e-01
        49         2        7.554049e-01
        50         2       -7.988012e-01
        51         2        1.257538e+00
        52         2        5.696089e-01
        53         2        9.280501e-01
        54         2       -1.198559e+00
        55         2        1.802426e+00
        56         2        1.924325e+00
        57         2       -8.712775e-01
        58         2       -4.628870e-02
        59         2       -4.589713e-01
        60         2       -1.033663e+00
        61         2        9.158748e-01
        62         2        5.534897e-01
        63         2        8.720853e-02
        64         2       -7.390618e-01
        65         2        7.140667e-01
        66         2        6.232378e-01
        67         2        3.725567e-01
        68         2        5.188659e-01
        69         2       -1.110012e+00
        70         2        3.154475e-01
        71         2       -6.546360e-01
        72         2       -1.281508e+00
        73         2       -2.914236e+00
        74         2       -6.685099e-01
        75         2        9.312739e-01
        76         2        3.103652e-01
        77         2       -8.663852e-01
        78         2       -2.041041e-01
        79         2        1.089909e+00
        80         2       -8.883413e-01
        81         2       -1.038117e+00
        82         2        1.827854e-01
        83         2        4.336164e-01
        84         2        7.738185e-01
        85         2       -2.906129e-01
        86         2       -4.210001e-02
        87         2        5.453740e-01
        88         2        6.112984e-01
        89         2       -2.073088e+00
        90         2       -5.954678e-01
        91         2       -4.257180e-01
        92         2        2.137884e-02
        93         2        3.276118e-01
        94         2        3.927817e-01
        95         2       -7.314800e-01
        96         2        2.619908e-03
        97         2       -1.352036e-01
        98         2        6.567360e-01
        99         2       -7.994756e-01
       100         2        1.214660e+00
         1         3       -1.077600e+00
         2         3       -1.054214e+00
         3         3       -9.801997e-01
         4         3        4.313383e-02
         5         3        1.375821e+00
         6         3        1.613331e+00
         7         3        1.295297e+00
         8         3        4.781393e-01
         9         3        5.323138e-01
        10         3        3.036074e-01
        11         3        9.404635e-01
        12         3       -1.131570e-01
        13         3        1.005758e+00
        14         3       -7.492719e-01
        15         3       -1.596703e+00
        16         3       -1.190366e+00
        17         3       -8.876149e-01
        18         3        2.590021e+00
        19         3        5.637134e-01
        20         3       -4.120334e-01
        21         3       -1.564850e-01
        22         3       -2.823635e-01
        23         3        1.247428e+00
        24         3        1.305727e+00
        25         3        2.979534e-01
        26         3       -1.695533e+00
        27         3       -4.657396e-02
        28         3        9.419076e-01
        29         3        2.013989e-01
        30         3        5.816615e-01
        31         3       -2.430484e-01
        32         3        1.870858e-01
        33         3       -4.479953e-01
        34         3        7.442978e-01
        35         3        2.140396e+00
        36         3       -7.924939e-01
        37         3        2.108035e-01
        38         3       -5.158160e-01
        39         3       -6.951836e-01
        40         3        1.583572e+00
        41         3        1.209909e+00
        42         3        5.382207e-01
        43         3       -1.039987e+00
        44         3        1.884911e+00
        45         3        3.257612e-01
        46         3       -1.224583e+00
        47         3        7.142168e-01
        48         3        1.124573e+00
        49         3        9.279064e-01
        50         3       -3.545844e-01
        51         3        1.759308e+00
        52         3        6.612021e-01
        53         3        1.526337e+00
        54         3        1.167720e-02
        55         3        2.493754e+00
        56         3        2.246436e+00
        57         3       -7.303941e-01
        58         3       -1.079443e-01
        59         3        1.482280e+00
        60         3       -1.285130e+00
        61         3        6.851403e-01
        62         3       -1.649291e-02
        63         3        1.471971e-01
        64         3       -8.966782e-01
        65         3       -1.014236e+00
        66         3       -8.436044e-01
        67         3       -8.635837e-01
        68         3        1.751956e+00
        69         3        3.711070e-01
        70         3        8.181590e-01
        71         3       -8.562995e-01
        72         3        3.775926e-01
        73         3        1.203404e+00
        74         3       -1.165278e+00
        75         3        6.170075e-01
        76         3        1.757852e-02
        77         3       -9.639767e-02
        78         3       -3.206873e-01
        79         3       -9.050138e-01
        80         3        2.191847e+00
        81         3       -7.695652e-01
        82         3       -2.213013e+00
        83         3        1.933211e-01
        84         3       -1.123112e-01
        85         3       -2.263706e-01
        86         3       -1.153350e+00
        87         3        5.574436e-01
        88         3        1.887396e-01
        89         3        3.914668e-01
        90         3       -8.545808e-01
        91         3        2.089448e-01
        92         3        1.053057e+00
        93         3       -2.585240e+00
        94         3        2.701094e+00
        95         3        2.915091e-01
        96         3       -1.440728e-01
        97         3       -5.797776e-01
        98         3        6.061006e-01
        99         3        3.862580e-01
       100         3        3.100243e-01
         1         4        8.936796e-02
         2         4       -2.233487e-01
         3         4        7.561236e-01
         4         4        3.733035e-01
         5         4       -9.105791e-01
         6         4       -9.170501e-01
         7         4        7.689982e-01
         8         4       -5.869044e-01
         9         4       -2.029022e-01
        10         4       -8.661152e-02
        11         4       -8.151162e-01
        12         4        5.215348e-01
        13         4       -8.413394e-01
        14         4        6.566181e-02
        15         4        1.180679e+00
        16         4       -1.151340e+00
        17         4        1.861618e-02
        18         4       -1.340514e-01
        19         4       -7.539225e-01
        20         4       -6.666406e-01
        21         4        1.226726e+00
        22         4       -3.829320e-02
        23         4        6.919742e-01
        24         4        1.120822e+00
        25         4        5.188180e-01
        26         4        1.266287e-01
        27         4       -4.226138e-01
        28         4       -3.177662e-01
        29         4        4.659804e-01
        30         4       -1.547467e-01
        31         4        4.743627e-01
        32         4       -1.107594e+00
        33         4       -1.767611e-01
        34         4        6.895447e-01
        35         4        5.736738e-02
        36         4        1.860292e-02
        37         4        8.422690e-01
        38         4       -6.917801e-03
        39         4        3.493642e-01
        40         4       -1.287555e+00
        41         4        1.135761e+00
        42         4        6.836612e-01
        43         4        7.364413e-01
        44         4       -3.029803e-01
        45         4        8.489113e-01
        46         4       -4.283406e-01
        47         4        7.053646e-01
        48         4       -3.479690e-01
        49         4       -1.791894e-01
        50         4       -1.663010e-01
        51         4        2.218948e+00
        52         4       -7.775148e-01
        53         4        1.007661e+00
        54         4       -1.841325e+00
        55         4       -4.394779e-01
        56         4       -2.442642e-01
        57         4       -1.093670e+00
        58         4        1.089893e+00
        59         4        1.158569e+00
        60         4        7.272877e-01
        61         4        6.316477e-01
        62         4       -4.706425e-01
        63         4       -2.702243e+00
        64         4       -7.666501e-02
        65         4        9.556102e-01
        66         4        1.258777e-01
        67         4        1.584827e-01
        68         4        3.872625e-01
        69         4       -1.064780e-01
        70         4        2.737993e-01
        71         4        1.316970e+00
        72         4        8.494251e-01
        73         4       -1.642052e+00
        74         4        2.392058e-01
        75         4        7.581176e-02
        76         4        7.151767e-01
        77         4        5.329177e-01
        78         4        6.984273e-01
        79         4        1.796803e-01
        80         4       -4.713699e-01
        81         4        5.712311e-01
        82         4        9.703634e-01
        83         4       -1.449043e+00
        84         4       -4.722505e-01
        85         4        2.917398e+00
        86         4        1.238096e+00
        87         4        8.295488e-01
        88         4        1.657422e-01
        89         4        6.676963e-01
        90         4       -1.500413e+00
        91         4       -9.530414e-01
        92         4       -3.851328e-01
        93         4        1.539418e-01
        94         4        7.196467e-01
        95         4        2.275008e+00
        96         4        7.081006e-01
        97         4       -1.810995e+00
        98         4       -5.071699e-01
        99         4       -6.614436e-01
       100         4       -6.495172e-01
         1         5       -2.282510e-02
         2         5        1.125747e+00
         3         5        4.347103e-01
         4         5        1.735913e+00
         5         5        1.375665e+00
         6         5       -7.313141e-01
         7         5        8.891702e-02
         8         5        5.272533e-01
         9         5        3.088842e-02
        10         5       -9.210389e-01
        11         5       -1.990240e+00
        12         5       -1.442355e+00
        13         5        9.919120e-01
        14         5       -7.451998e-01
        15         5       -7.302276e-01
        16         5       -6.896622e-01
        17         5        4.049855e-01
        18         5       -1.093122e+00
        19         5        7.523410e-01
        20         5        1.117332e-01
        21         5        2.123023e-01
        22         5        1.559355e+00
        23         5        8.795017e-01
        24         5       -4.303612e-01
        25         5        3.006184e-01
        26         5       -3.018094e+00
        27         5       -3.186328e-01
        28         5        1.188850e-01
        29         5       -1.746651e+00
        30         5       -3.713860e-01
        31         5       -5.383909e-01
        32         5        7.540209e-02
        33         5       -7.238393e-02
        34         5        5.669058e-01
        35         5       -1.251751e+00
        36         5       -9.084704e-01
        37         5       -2.425203e-01
        38         5        1.604782e+00
        39         5        9.820524e-01
        40         5       -9.827152e-01
        41         5        2.317325e-01
        42         5       -1.723573e+00
        43         5        8.357719e-01
        44         5       -2.022683e+00
        45         5       -1.197635e+00
        46         5       -9.447084e-01
        47         5        1.460120e+00
        48         5        9.682650e-01
        49         5        4.707961e-02
        50         5        8.199133e-01
        51         5       -5.463990e-01
        52         5        1.342023e-01
        53         5        1.095651e+00
        54         5       -4.290525e-01
        55         5       -5.351503e-02
        56         5       -1.167281e+00
        57         5       -7.672365e-01
        58         5       -2.474753e+00
        59         5       -2.668351e+00
        60         5       -8.292029e-01
        61         5       -1.342200e-02
        62         5       -1.080471e+00
        63         5       -2.152382e-01
        64         5       -9.001954e-01
        65         5        1.430878e+00
        66         5        6.928895e-01
        67         5        9.725923e-01
        68         5       -1.751600e-01
        69         5        6.482706e-01
        70         5        1.430550e+00
        71         5       -1.117566e+00
        72         5        1.355804e+00
        73         5       -2.247310e-01
        74         5       -6.353949e-01
        75         5        1.008066e+00
        76         5       -9.748728e-01
        77         5        2.510433e-01
        78         5        1.082693e+00
        79         5        8.269217e-01
        80         5        2.140178e-01
        81         5       -1.431755e+00
        82         5       -2.615673e-01
        83         5       -3.320845e-01
        84         5       -6.692961e-02
        85         5        2.816327e-01
        86         5        1.987948e-01
        87         5        1.153816e-01
        88         5       -1.054994e-01
        89         5        1.621937e-01
        90         5        1.153947e+00
        91         5        2.326926e-01
        92         5       -1.481241e+00
        93         5       -1.229921e+00
        94         5        2.569785e-01
        95         5       -4.139011e-01
        96         5       -9.564666e-01
        97         5       -1.410150e+00
        98         5        1.221695e+00
        99         5        7.296893e-01
       100         5        2.270493e-01
;

param theta:=
    1        1.585895e+00
    2       -2.220186e+00
    3       -7.788460e-01
    4        2.381391e+00
    5       -4.183335e-01
;
param X_true:=
    1        2.394055e+00
    2       -1.716589e+00
    3       -3.834375e+00
    4       -1.686862e-04
    5       -3.408618e+00
    6       -2.534936e+00
    7        6.485089e+00
    8       -4.966454e+00
    9        1.253101e+00
   10        3.657639e-01
   11       -1.333822e+00
   12        2.349350e+00
   13       -5.200666e+00
   14        2.893729e+00
   15        2.456147e+00
   16       -8.203193e-01
   17        1.445736e+00
   18       -4.093687e+00
   19       -1.445622e-02
   20        3.201289e+00
   21        2.063515e+00
   22        2.868534e+00
   23       -4.569539e-01
   24       -1.190400e+00
   25        5.778973e-01
   26        5.815341e-01
   27       -2.881223e+00
   28        1.009771e+00
   29        3.895080e-01
   30        3.409383e+00
   31        5.049597e+00
   32       -3.641907e+00
   33        3.176915e+00
   34        1.770913e+00
   35       -2.900651e+00
   36       -1.985188e+00
   37        1.708765e+00
   38        1.335423e+00
   39       -5.028354e-01
   40       -8.612185e+00
   41        2.947487e+00
   42        3.139510e+00
   43        3.800090e-01
   44        1.857210e+00
   45       -1.491740e+00
   46        1.029096e+00
   47       -1.947120e+00
   48       -9.577857e-01
   49        3.420727e-01
   50       -1.074569e+00
   51        2.938525e+00
   52       -3.379221e+00
   53       -3.172198e+00
   54        9.775266e-01
   55       -6.751438e+00
   56       -5.559933e+00
   57        1.077992e+00
   58        4.148373e+00
   59        3.986211e+00
   60        5.175599e+00
   61       -2.463133e+00
   62       -1.477839e+00
   63       -6.693066e+00
   64        2.653268e-01
   65        1.075930e+00
   66       -3.533382e+00
   67       -2.574949e+00
   68       -1.386119e+00
   69        2.094210e+00
   70       -1.540280e+00
   71        2.710351e+00
   72        4.044971e+00
   73        2.413734e+00
   74        2.240994e+00
   75       -1.492936e+00
   76        2.010355e+00
   77        2.356924e+00
   78        1.301730e+00
   79       -2.145283e+00
   80       -9.246802e-01
   81        5.647569e+00
   82        2.616908e+00
   83       -6.226286e+00
   84       -2.032119e+00
   85        7.487314e+00
   86        5.041417e+00
   87        3.386138e+00
   88       -2.092250e+00
   89        3.694028e+00
   90       -4.316053e+00
   91       -1.394808e+00
   92       -3.027242e+00
   93        2.253336e+00
   94       -4.171567e+00
   95        7.501560e+00
   96        2.801610e+00
   97       -3.741593e+00
   98       -3.101453e+00
   99       -2.600244e+00
  100       -3.160519e+00
;
param X:=
    1        7.516547e-02
    2        2.714641e-02
    3       -4.569444e-01
    4        5.358563e-01
    5       -3.240717e-01
    6       -2.534936e+00
    7        9.068169e-01
    8       -1.026249e+00
    9       -1.320126e-01
   10        1.691011e+00
   11       -1.447196e+00
   12        2.532460e-01
   13        1.506569e-01
   14        3.128606e-01
   15        8.110628e-01
   16       -8.312710e-01
   17       -2.774767e-01
   18       -4.093687e+00
   19        2.340341e-01
   20        2.309696e-01
   21        7.194705e-01
   22       -9.263910e-01
   23       -4.253921e-01
   24       -2.204208e+00
   25       -4.511658e-01
   26        5.815341e-01
   27       -6.082405e-01
   28        1.009771e+00
   29       -1.788529e+00
   30        3.409383e+00
   31        5.049597e+00
   32       -3.266505e-02
   33        3.176915e+00
   34        5.178297e-01
   35        7.327609e-01
   36        1.504747e+00
   37        1.708765e+00
   38        4.838211e-02
   39       -5.028354e-01
   40       -8.612185e+00
   41        1.237963e+00
   42        9.460033e-01
   43        3.800090e-01
   44       -4.159606e-01
   45       -7.656444e-01
   46        9.864091e-01
   47        5.287334e-01
   48       -5.781867e-02
   49        9.279196e-01
   50        1.090106e+00
   51        2.938525e+00
   52        1.594926e-01
   53       -4.836199e-01
   54        4.822613e-01
   55        5.362846e-01
   56       -4.453727e-01
   57        1.077992e+00
   58        1.691781e+00
   59       -1.073295e+00
   60        5.175599e+00
   61        8.349480e-01
   62       -8.693146e-01
   63       -2.310090e-01
   64       -1.999768e-01
   65       -8.312363e-01
   66       -3.533382e+00
   67       -2.574949e+00
   68       -5.151441e-01
   69       -2.782907e+00
   70       -6.312376e-02
   71       -5.250896e-01
   72       -1.304534e-01
   73       -2.037680e+00
   74        2.240994e+00
   75        2.413273e-01
   76       -1.055876e+00
   77        2.076038e-01
   78       -5.513012e-01
   79        4.524260e-01
   80       -9.246802e-01
   81        3.787636e-01
   82        2.616908e+00
   83       -3.757117e-01
   84       -2.032119e+00
   85        7.487314e+00
   86       -3.581831e-01
   87        3.386138e+00
   88        1.194428e-01
   89        4.136924e-01
   90       -3.832087e-01
   91       -1.394808e+00
   92       -3.027242e+00
   93       -2.552080e-01
   94       -1.067915e-01
   95       -1.076357e+00
   96       -1.140477e-01
   97       -3.741593e+00
   98       -5.730463e-01
   99       -2.600244e+00
  100       -3.874342e-01
;
param outliervec:=
    1    1
    2    1
    3    1
    4    1
    5    1
    6    0
    7    1
    8    1
    9    1
   10    1
   11    1
   12    1
   13    1
   14    1
   15    1
   16    1
   17    1
   18    0
   19    1
   20    1
   21    1
   22    1
   23    1
   24    1
   25    1
   26    0
   27    1
   28    0
   29    1
   30    0
   31    0
   32    1
   33    0
   34    1
   35    1
   36    1
   37    0
   38    1
   39    0
   40    0
   41    1
   42    1
   43    0
   44    1
   45    1
   46    1
   47    1
   48    1
   49    1
   50    1
   51    0
   52    1
   53    1
   54    1
   55    1
   56    1
   57    0
   58    1
   59    1
   60    0
   61    1
   62    1
   63    1
   64    1
   65    1
   66    0
   67    0
   68    1
   69    1
   70    1
   71    1
   72    1
   73    1
   74    0
   75    1
   76    1
   77    1
   78    1
   79    1
   80    0
   81    1
   82    0
   83    1
   84    0
   85    0
   86    1
   87    0
   88    1
   89    1
   90    1
   91    0
   92    0
   93    1
   94    1
   95    1
   96    1
   97    0
   98    1
   99    0
  100    1
;